(declare-fun var0 () String)
(assert (str.in.re var0 (re.++ (re.union (re.union (str.to.re ";") (str.to.re "<")) (re.union (str.to.re "===") (str.to.re ">>>"))) (re.++ (re.* (re.+ (str.to.re ":::"))) (re.++ (re.union (re.union (str.to.re "-") (str.to.re "...")) (re.+ (str.to.re "/"))) (re.++ (re.union (re.* (str.to.re "***")) (re.union (str.to.re "+++") (str.to.re ",,"))) (re.++ (re.* (re.* (str.to.re "))"))) (re.++ (re.* (re.+ (str.to.re "(("))) (re.++ (re.* (re.union (str.to.re "&&&") (str.to.re "'"))) (re.++ (re.union (re.+ (str.to.re "$")) (re.* (str.to.re "%"))) (re.++ (re.* (re.union (str.to.re """""""") (str.to.re "##"))) (re.++ (re.* (re.* (str.to.re "!"))) (re.++ (re.* (re.+ (str.to.re "ZZ"))) (re.++ (re.* (re.* (str.to.re "YYY"))) (re.++ (re.* (re.union (str.to.re "WW") (str.to.re "XXX"))) (re.++ (re.+ (re.+ (str.to.re "V"))) (re.++ (re.union (re.union (str.to.re "RRR") (str.to.re "S")) (re.union (str.to.re "TT") (str.to.re "UUU"))) (re.++ (re.+ (re.* (str.to.re "QQ"))) (re.++ (re.* (re.+ (str.to.re "PP"))) (re.++ (re.+ (re.+ (str.to.re "OOO"))) (re.++ (re.* (re.union (str.to.re "MM") (str.to.re "N"))) (re.++ (re.* (re.* (str.to.re "LL"))) (re.++ (re.+ (re.union (str.to.re "JJJ") (str.to.re "KKK"))) (re.++ (re.* (re.+ (str.to.re "I"))) (re.++ (re.+ (re.union (str.to.re "GGG") (str.to.re "HHH"))) (re.++ (re.+ (re.union (str.to.re "EEE") (str.to.re "F"))) (re.++ (re.+ (re.union (str.to.re "CCC") (str.to.re "D"))) (re.++ (re.* (re.union (str.to.re "AA") (str.to.re "BBB"))) (re.++ (re.* (re.+ (str.to.re "zz"))) (re.++ (re.union (re.* (str.to.re "x")) (re.* (str.to.re "yy"))) (re.++ (re.union (re.+ (str.to.re "v")) (re.+ (str.to.re "ww"))) (re.++ (re.+ (re.+ (str.to.re "u"))) (re.++ (re.* (re.* (str.to.re "tt"))) (re.++ (re.* (re.union (str.to.re "r") (str.to.re "ss"))) (re.++ (re.union (re.* (str.to.re "p")) (re.+ (str.to.re "qq"))) (re.++ (re.union (re.+ (str.to.re "nn")) (re.+ (str.to.re "oo"))) (re.++ (re.+ (re.* (str.to.re "m"))) (re.++ (re.union (re.+ (str.to.re "k")) (re.* (str.to.re "ll"))) (re.++ (re.union (re.* (str.to.re "hh")) (re.union (str.to.re "ii") (str.to.re "jj"))) (re.++ (re.union (re.+ (str.to.re "f")) (re.* (str.to.re "g"))) (re.++ (re.* (re.* (str.to.re "ee"))) (re.++ (re.union (re.union (str.to.re "aaa") (str.to.re "bbb")) (re.union (str.to.re "c") (str.to.re "ddd"))) (re.++ (re.union (re.* (str.to.re "77")) (re.union (str.to.re "888") (str.to.re "99"))) (re.++ (re.* (re.* (str.to.re "666"))) (re.++ (re.* (re.union (str.to.re "4") (str.to.re "55"))) (re.++ (re.union (re.union (str.to.re "111") (str.to.re "22")) (re.* (str.to.re "333"))) (re.++ (re.+ (re.* (str.to.re "000"))) (re.++ (re.union (re.union (str.to.re "{") (str.to.re "|||")) (re.union (str.to.re "}}") (str.to.re "~~~"))) (re.++ (re.+ (re.+ (str.to.re "`"))) (re.++ (re.union (re.+ (str.to.re "^")) (re.+ (str.to.re "_"))) (re.++ (re.* (re.* (str.to.re "]"))) (re.++ (re.* (re.+ (str.to.re "\\"))) (re.++ (re.union (re.* (str.to.re "?")) (re.union (str.to.re "@@@") (str.to.re "[["))) (re.++ (re.union (re.+ (str.to.re "===")) (re.* (str.to.re ">>>"))) (re.++ (re.* (re.* (str.to.re "<<<"))) (re.++ (re.+ (re.union (str.to.re ":") (str.to.re ";;"))) (re.++ (re.+ (re.+ (str.to.re "/"))) (re.++ (re.union (re.* (str.to.re ",,,")) (re.union (str.to.re "---") (str.to.re "..."))) (re.++ (re.+ (re.union (str.to.re "**") (str.to.re "++"))) (re.++ (re.+ (re.* (str.to.re ")"))) (re.++ (re.* (re.union (str.to.re "'") (str.to.re "("))) (re.++ (re.union (re.* (str.to.re "%%%")) (re.+ (str.to.re "&"))) (re.++ (re.union (re.union (str.to.re """") (str.to.re "###")) (re.* (str.to.re "$"))) (re.++ (re.+ (re.+ (str.to.re "!"))) (re.++ (re.+ (re.union (str.to.re "Y") (str.to.re "ZZZ"))) (re.++ (re.* (re.* (str.to.re "X"))) (re.++ (re.+ (re.+ (str.to.re "WWW"))) (re.++ (re.+ (re.union (str.to.re "UU") (str.to.re "VVV"))) (re.++ (re.union (re.union (str.to.re "RR") (str.to.re "S")) (re.* (str.to.re "TTT"))) (re.++ (re.+ (re.union (str.to.re "P") (str.to.re "QQQ"))) (re.++ (re.+ (re.union (str.to.re "N") (str.to.re "OO"))) (re.++ (re.+ (re.+ (str.to.re "M"))) (re.++ (re.+ (re.* (str.to.re "LL"))) (re.++ (re.union (re.+ (str.to.re "JJ")) (re.+ (str.to.re "KK"))) (re.++ (re.+ (re.union (str.to.re "HHH") (str.to.re "II"))) (re.++ (re.+ (re.union (str.to.re "F") (str.to.re "GG"))) (re.++ (re.* (re.* (str.to.re "EE"))) (re.++ (re.union (re.* (str.to.re "CCC")) (re.+ (str.to.re "DDD"))) (re.++ (re.* (re.* (str.to.re "BB"))) (re.++ (re.* (re.* (str.to.re "AA"))) (re.++ (re.* (re.* (str.to.re "z"))) (re.++ (re.union (re.* (str.to.re "w")) (re.union (str.to.re "xx") (str.to.re "y"))) (re.++ (re.+ (re.* (str.to.re "vv"))) (re.++ (re.union (re.* (str.to.re "s")) (re.union (str.to.re "t") (str.to.re "uuu"))) (re.++ (re.union (re.+ (str.to.re "qq")) (re.* (str.to.re "rr"))) (re.++ (re.* (re.+ (str.to.re "p"))) (re.++ (re.* (re.union (str.to.re "nnn") (str.to.re "oo"))) (re.++ (re.* (re.+ (str.to.re "mm"))) (re.++ (re.union (re.union (str.to.re "jj") (str.to.re "k")) (re.+ (str.to.re "l"))) (re.++ (re.* (re.union (str.to.re "hh") (str.to.re "ii"))) (re.++ (re.union (re.union (str.to.re "eee") (str.to.re "ff")) (re.* (str.to.re "g"))) (re.++ (re.union (re.union (str.to.re "a") (str.to.re "bbb")) (re.union (str.to.re "ccc") (str.to.re "d"))) (re.++ (re.union (re.+ (str.to.re "888")) (re.+ (str.to.re "99"))) (re.++ (re.union (re.+ (str.to.re "6")) (re.* (str.to.re "777"))) (re.++ (re.union (re.+ (str.to.re "44")) (re.* (str.to.re "5"))) (re.++ (re.* (re.+ (str.to.re "3"))) (re.++ (re.+ (re.union (str.to.re "1") (str.to.re "22"))) (re.* (re.* (str.to.re "000"))))))))))))))))))))))))))))))))))))))))))))))))))))))))))))))))))))))))))))))))))))))))))))))))))))
(assert (not (str.in.re var0 (re.++ (re.* (re.union (str.to.re "'") (str.to.re "(("))) (re.++ (re.union (re.* (str.to.re "$")) (re.union (str.to.re "%") (str.to.re "&&"))) (re.++ (re.+ (re.+ (str.to.re "###"))) (re.++ (re.* (re.+ (str.to.re """"""""))) (re.++ (re.union (re.+ (str.to.re "ZZ")) (re.+ (str.to.re "!"))) (re.++ (re.union (re.union (str.to.re "WW") (str.to.re "XX")) (re.+ (str.to.re "YY"))) (re.++ (re.* (re.union (str.to.re "U") (str.to.re "VVV"))) (re.++ (re.* (re.union (str.to.re "SSS") (str.to.re "TTT"))) (re.++ (re.+ (re.* (str.to.re "RRR"))) (re.++ (re.union (re.union (str.to.re "OOO") (str.to.re "PP")) (re.+ (str.to.re "Q"))) (re.++ (re.+ (re.+ (str.to.re "N"))) (re.++ (re.* (re.union (str.to.re "L") (str.to.re "MMM"))) (re.++ (re.union (re.* (str.to.re "J")) (re.+ (str.to.re "KK"))) (re.++ (re.union (re.union (str.to.re "G") (str.to.re "HH")) (re.+ (str.to.re "I"))) (re.++ (re.union (re.+ (str.to.re "EE")) (re.* (str.to.re "FFF"))) (re.++ (re.* (re.union (str.to.re "CC") (str.to.re "D"))) (re.++ (re.union (re.* (str.to.re "A")) (re.+ (str.to.re "BB"))) (re.++ (re.+ (re.union (str.to.re "yy") (str.to.re "z"))) (re.++ (re.* (re.* (str.to.re "x"))) (re.++ (re.+ (re.* (str.to.re "ww"))) (re.++ (re.+ (re.union (str.to.re "uuu") (str.to.re "vvv"))) (re.++ (re.union (re.+ (str.to.re "sss")) (re.+ (str.to.re "tt"))) (re.++ (re.* (re.+ (str.to.re "r"))) (re.++ (re.+ (re.+ (str.to.re "qq"))) (re.++ (re.+ (re.* (str.to.re "ppp"))) (re.++ (re.+ (re.+ (str.to.re "ooo"))) (re.++ (re.* (re.union (str.to.re "m") (str.to.re "nnn"))) (re.++ (re.+ (re.+ (str.to.re "lll"))) (re.++ (re.* (re.+ (str.to.re "k"))) (re.++ (re.+ (re.* (str.to.re "jjj"))) (re.++ (re.+ (re.+ (str.to.re "iii"))) (re.++ (re.+ (re.* (str.to.re "hhh"))) (re.++ (re.* (re.union (str.to.re "ff") (str.to.re "g"))) (re.++ (re.+ (re.union (str.to.re "d") (str.to.re "e"))) (re.++ (re.* (re.union (str.to.re "bb") (str.to.re "cc"))) (re.++ (re.* (re.* (str.to.re "aaa"))) (re.++ (re.* (re.union (str.to.re "88") (str.to.re "99"))) (re.++ (re.union (re.* (str.to.re "666")) (re.* (str.to.re "7"))) (re.++ (re.+ (re.union (str.to.re "444") (str.to.re "5"))) (re.++ (re.* (re.union (str.to.re "22") (str.to.re "3"))) (re.++ (re.+ (re.+ (str.to.re "11"))) (re.++ (re.+ (re.* (str.to.re "0"))) (re.++ (re.+ (re.* (str.to.re "~~~"))) (re.++ (re.* (re.union (str.to.re "|||") (str.to.re "}}"))) (re.++ (re.union (re.+ (str.to.re "`")) (re.* (str.to.re "{"))) (re.++ (re.* (re.union (str.to.re "^^^") (str.to.re "__"))) (re.++ (re.union (re.* (str.to.re "\\")) (re.+ (str.to.re "]"))) (re.++ (re.union (re.+ (str.to.re "@@@")) (re.+ (str.to.re "["))) (re.++ (re.union (re.* (str.to.re ">>>")) (re.+ (str.to.re "???"))) (re.++ (re.* (re.+ (str.to.re "=="))) (re.++ (re.* (re.+ (str.to.re "<<<"))) (re.++ (re.union (re.+ (str.to.re "///")) (re.union (str.to.re "::") (str.to.re ";"))) (re.++ (re.* (re.* (str.to.re "..."))) (re.++ (re.union (re.+ (str.to.re ",,")) (re.+ (str.to.re "-"))) (re.++ (re.* (re.+ (str.to.re "+"))) (re.++ (re.* (re.* (str.to.re "**"))) (re.++ (re.+ (re.+ (str.to.re "))"))) (re.++ (re.+ (re.union (str.to.re "'''") (str.to.re "(("))) (re.++ (re.union (re.* (str.to.re "%%")) (re.* (str.to.re "&&&"))) (re.++ (re.+ (re.union (str.to.re "###") (str.to.re "$$"))) (re.++ (re.+ (re.* (str.to.re """"))) (re.++ (re.+ (re.+ (str.to.re "!!!"))) (re.++ (re.union (re.union (str.to.re "WWW") (str.to.re "XX")) (re.union (str.to.re "YYY") (str.to.re "Z"))) (re.++ (re.union (re.+ (str.to.re "UU")) (re.* (str.to.re "V"))) (re.++ (re.union (re.+ (str.to.re "S")) (re.+ (str.to.re "TT"))) (re.++ (re.* (re.union (str.to.re "Q") (str.to.re "RR"))) (re.++ (re.* (re.* (str.to.re "PP"))) (re.++ (re.+ (re.+ (str.to.re "OO"))) (re.++ (re.union (re.union (str.to.re "LL") (str.to.re "M")) (re.+ (str.to.re "NNN"))) (re.++ (re.union (re.+ (str.to.re "J")) (re.+ (str.to.re "KKK"))) (re.++ (re.* (re.+ (str.to.re "I"))) (re.++ (re.+ (re.union (str.to.re "GGG") (str.to.re "HH"))) (re.++ (re.* (re.* (str.to.re "FFF"))) (re.++ (re.union (re.union (str.to.re "CC") (str.to.re "D")) (re.+ (str.to.re "EE"))) (re.++ (re.+ (re.union (str.to.re "AAA") (str.to.re "B"))) (re.++ (re.union (re.union (str.to.re "xxx") (str.to.re "yy")) (re.+ (str.to.re "zzz"))) (re.++ (re.+ (re.* (str.to.re "www"))) (re.++ (re.+ (re.+ (str.to.re "v"))) (re.++ (re.+ (re.+ (str.to.re "uuu"))) (re.++ (re.* (re.union (str.to.re "sss") (str.to.re "t"))) (re.++ (re.+ (re.* (str.to.re "rr"))) (re.++ (re.+ (re.+ (str.to.re "qqq"))) (re.++ (re.+ (re.* (str.to.re "ppp"))) (re.++ (re.union (re.+ (str.to.re "nn")) (re.* (str.to.re "ooo"))) (re.++ (re.+ (re.+ (str.to.re "m"))) (re.++ (re.* (re.* (str.to.re "lll"))) (re.++ (re.union (re.+ (str.to.re "jj")) (re.+ (str.to.re "kk"))) (re.++ (re.+ (re.union (str.to.re "hh") (str.to.re "ii"))) (re.++ (re.+ (re.union (str.to.re "f") (str.to.re "gg"))) (re.++ (re.* (re.* (str.to.re "ee"))) (re.++ (re.union (re.* (str.to.re "bb")) (re.union (str.to.re "ccc") (str.to.re "ddd"))) (re.++ (re.union (re.* (str.to.re "999")) (re.+ (str.to.re "a"))) (re.++ (re.union (re.+ (str.to.re "66")) (re.union (str.to.re "7") (str.to.re "888"))) (re.++ (re.+ (re.union (str.to.re "4") (str.to.re "555"))) (re.++ (re.* (re.+ (str.to.re "3"))) (re.union (re.union (str.to.re "00") (str.to.re "111")) (re.* (str.to.re "2")))))))))))))))))))))))))))))))))))))))))))))))))))))))))))))))))))))))))))))))))))))))))))))))))))))
(check-sat)